p wcnf 145 72 73 
1 -130 38 0 
1 -111 -114 0 
1 139 52 0 
1 -16 42 0 
1 18 -104 0 
1 -67 15 0 
1 65 -134 0 
1 46 129 0 
1 -113 111 0 
1 73 133 0 
1 135 -34 0 
1 -125 -137 0 
1 35 130 0 
1 -110 -97 0 
1 -131 129 0 
1 -62 65 0 
1 -85 -143 0 
1 -7 -97 0 
1 -126 -57 0 
1 65 -104 0 
1 74 50 0 
1 79 22 0 
1 -70 -140 0 
1 48 23 0 
1 -9 130 0 
1 38 77 0 
1 114 44 0 
1 -55 122 0 
1 -50 -127 0 
1 85 122 0 
1 -100 103 0 
1 142 132 0 
1 111 112 0 
1 -17 33 0 
1 28 120 0 
1 -114 107 0 
1 -45 128 0 
1 14 114 0 
1 -121 -126 0 
1 99 -55 0 
1 83 -117 0 
1 130 -77 0 
1 -47 1 0 
1 66 -8 0 
1 -57 86 0 
1 -16 118 0 
1 90 -133 0 
1 -25 -36 0 
1 -10 -84 0 
1 -108 -110 0 
1 132 -15 0 
1 -44 -25 0 
1 138 128 0 
1 -68 105 0 
1 -121 -133 0 
1 -101 -120 0 
1 -114 57 0 
1 10 6 0 
1 -40 -84 0 
1 -59 -75 0 
1 1 -110 0 
1 -127 71 0 
1 74 -35 0 
1 -106 142 0 
1 -108 55 0 
1 101 -37 0 
1 64 -87 0 
1 97 -25 0 
1 48 91 0 
1 -126 -122 0 
1 -5 -2 0 
1 48 -100 0 
